<number of tasks>
50

<cycle time>
1000

<order strength>
0.195


<task times>
1 176
2 196
3 81
4 161
5 101
6 146
7 180
8 206
9 154
10 117
11 116
12 189
13 160
14 149
15 190
16 120
17 273
18 191
19 200
20 321
21 242
22 127
23 155
24 140
25 168
26 180
27 89
28 195
29 117
30 102
31 204
32 67
33 35
34 281
35 153
36 57
37 223
38 59
39 72
40 62
41 195
42 307
43 244
44 187
45 229
46 57
47 230
48 209
49 215
50 83

<precedence relations>
1,28
2,11
3,10
4,8
6,9
6,12
8,28
9,28
10,14
11,15
12,13
12,16
12,17
12,18
13,28
14,20
15,19
18,21
19,23
20,27
21,22
21,24
21,25
21,26
22,28
23,29
23,30
23,31
24,32
24,47
25,33
26,34
28,35
28,36
28,37
28,38
28,39
28,40
29,42
30,43
31,41
32,48
33,44
36,49
39,48
41,45
42,46
43,47
44,50

<end>
